(set-logic QF_S)
(declare-fun var0 () String)
(declare-fun var1 () String)
(declare-fun var2 () String)
(declare-fun var3 () Int)
(declare-fun var4 () Int)
(declare-fun var5 () Int)
(declare-fun var6 () Bool)
(declare-fun var7 () Bool)
(declare-fun var8 () Bool)
(assert (str.prefixof (str.at var2 var5) (str.substr (str.replace var0 var0 var0) (str.len var1) (str.len var0))))
(assert (str.prefixof var2 var2))
(assert (>= var5 var3))
(assert (< (str.indexof (str.replace var1 var1 var0) (str.at "9E,UfY{Jhb" 10) (str.indexof var2 var2 var4)) (str.indexof (str.replace var1 var0 var0) (str.replace var1 var2 var0) (str.len var1))))
(check-sat)